g3 0 1 0	# problem odfits
 10 6 1 0 6	# vars, constraints, objectives, ranges, eqns
 0 1	# nonlinear constraints, objectives
 0 0	# network constraints: nonlinear, linear
 0 10 0	# nonlinear vars in constraints, objectives, both
 0 0 0 1	# linear network variables; functions; arith, flags
 0 0 0 0 0	# discrete variables: binary, integer, nonlinear (b,c,o)
 15 10	# nonzeros in Jacobian, gradients
 0 0	# max name lengths: constraints, variables
 0 0 0 0 0	# common exprs: b,c,o,c1,o1
b
2 0.1
2 0.1
2 0.1
2 0.1
2 0.1
2 0.1
2 0.1
2 0.1
2 0.1
2 0.1
x10
0 90
1 450
2 360
3 1
4 100
5 500
6 400
7 1100
8 600
9 700
r
4 0
4 0
4 0
4 0
4 0
4 0
C0
n0
C1
n0
C2
n0
C3
n0
C4
n0
C5
n0
O0 0
o54
10
o2
n0.5
o2
v0
o43
o3
v0
n90
o2
n0.5
o2
v1
o43
o3
v1
n450
o2
n0.5
o2
v2
o43
o3
v2
n360
o2
n0.2
o2
v3
o43
v3
o2
n0.6666666666666666
o2
v4
o43
o3
v4
n100
o2
n0.6666666666666666
o2
v5
o43
o3
v5
n500
o2
n0.6666666666666666
o2
v6
o43
o3
v6
n400
o2
n0.6666666666666666
o2
v7
o43
o3
v7
n1100
o2
n0.6666666666666666
o2
v8
o43
o3
v8
n600
o2
n0.6666666666666666
o2
v9
o43
o3
v9
n700
k9
1
3
6
9
10
11
12
13
14
J0 2
0 1
4 -1
J1 2
1 1
5 -1
J2 2
2 1
6 -1
J3 4
1 1
2 1
3 1
7 -1
J4 3
2 1
3 1
8 -1
J5 2
3 1
9 -1
G0 10
0 -0.5
1 -0.5
2 -0.5
3 -0.2
4 -0.6666666666666666
5 -0.6666666666666666
6 -0.6666666666666666
7 -0.6666666666666666
8 -0.6666666666666666
9 -0.6666666666666666
